80 3160
1 2 161
1 3 122
1 4 234
1 5 105
1 6 85
1 7 68
1 8 35
1 9 197
1 10 139
1 11 234
1 12 206
1 13 157
1 14 18
1 15 29
1 16 89
1 17 29
1 18 102
1 19 117
1 20 118
1 21 20
1 22 229
1 23 96
1 24 62
1 25 5
1 26 148
1 27 179
1 28 19
1 29 213
1 30 21
1 31 191
1 32 232
1 33 72
1 34 239
1 35 42
1 36 109
1 37 212
1 38 72
1 39 126
1 40 106
1 41 77
1 42 164
1 43 130
1 44 37
1 45 226
1 46 186
1 47 170
1 48 203
1 49 34
1 50 105
1 51 58
1 52 190
1 53 166
1 54 216
1 55 66
1 56 70
1 57 170
1 58 224
1 59 43
1 60 213
1 61 116
1 62 31
1 63 212
1 64 228
1 65 217
1 66 190
1 67 84
1 68 90
1 69 185
1 70 205
1 71 172
1 72 19
1 73 106
1 74 221
1 75 238
1 76 38
1 77 23
1 78 137
1 79 141
1 80 70
2 3 136
2 4 120
2 5 94
2 6 121
2 7 100
2 8 36
2 9 106
2 10 221
2 11 176
2 12 13
2 13 1
2 14 5
2 15 218
2 16 201
2 17 99
2 18 165
2 19 0
2 20 176
2 21 44
2 22 219
2 23 98
2 24 163
2 25 148
2 26 145
2 27 232
2 28 70
2 29 107
2 30 231
2 31 35
2 32 166
2 33 149
2 34 145
2 35 61
2 36 11
2 37 6
2 38 59
2 39 77
2 40 157
2 41 191
2 42 17
2 43 223
2 44 0
2 45 85
2 46 102
2 47 103
2 48 43
2 49 172
2 50 222
2 51 177
2 52 166
2 53 23
2 54 98
2 55 122
2 56 233
2 57 101
2 58 114
2 59 15
2 60 16
2 61 205
2 62 129
2 63 198
2 64 95
2 65 132
2 66 78
2 67 18
2 68 17
2 69 48
2 70 106
2 71 77
2 72 72
2 73 156
2 74 88
2 75 126
2 76 23
2 77 102
2 78 119
2 79 15
2 80 185
3 4 201
3 5 100
3 6 134
3 7 150
3 8 132
3 9 201
3 10 144
3 11 169
3 12 208
3 13 155
3 14 153
3 15 195
3 16 38
3 17 49
3 18 238
3 19 36
3 20 54
3 21 185
3 22 101
3 23 87
3 24 149
3 25 167
3 26 45
3 27 43
3 28 37
3 29 201
3 30 184
3 31 126
3 32 190
3 33 161
3 34 51
3 35 124
3 36 12
3 37 102
3 38 184
3 39 86
3 40 137
3 41 68
3 42 41
3 43 190
3 44 42
3 45 160
3 46 160
3 47 184
3 48 234
3 49 192
3 50 185
3 51 209
3 52 188
3 53 23
3 54 0
3 55 99
3 56 8
3 57 32
3 58 207
3 59 184
3 60 35
3 61 120
3 62 135
3 63 59
3 64 25
3 65 61
3 66 153
3 67 122
3 68 211
3 69 200
3 70 46
3 71 72
3 72 194
3 73 121
3 74 238
3 75 143
3 76 31
3 77 119
3 78 86
3 79 41
3 80 120
4 5 227
4 6 197
4 7 225
4 8 129
4 9 139
4 10 173
4 11 12
4 12 9
4 13 97
4 14 110
4 15 102
4 16 24
4 17 146
4 18 71
4 19 7
4 20 55
4 21 93
4 22 238
4 23 39
4 24 133
4 25 217
4 26 193
4 27 152
4 28 35
4 29 93
4 30 151
4 31 24
4 32 70
4 33 34
4 34 113
4 35 68
4 36 193
4 37 18
4 38 96
4 39 23
4 40 105
4 41 114
4 42 68
4 43 13
4 44 53
4 45 92
4 46 147
4 47 154
4 48 82
4 49 192
4 50 112
4 51 115
4 52 212
4 53 48
4 54 225
4 55 79
4 56 239
4 57 208
4 58 165
4 59 82
4 60 174
4 61 23
4 62 47
4 63 114
4 64 118
4 65 223
4 66 46
4 67 208
4 68 52
4 69 214
4 70 37
4 71 228
4 72 21
4 73 113
4 74 160
4 75 3
4 76 3
4 77 210
4 78 232
4 79 203
4 80 141
5 6 160
5 7 182
5 8 10
5 9 73
5 10 43
5 11 106
5 12 166
5 13 108
5 14 180
5 15 114
5 16 57
5 17 4
5 18 62
5 19 86
5 20 77
5 21 126
5 22 76
5 23 227
5 24 224
5 25 103
5 26 33
5 27 44
5 28 25
5 29 225
5 30 168
5 31 92
5 32 8
5 33 111
5 34 93
5 35 31
5 36 24
5 37 184
5 38 172
5 39 187
5 40 48
5 41 232
5 42 3
5 43 41
5 44 42
5 45 10
5 46 7
5 47 187
5 48 102
5 49 169
5 50 158
5 51 220
5 52 7
5 53 117
5 54 97
5 55 206
5 56 108
5 57 73
5 58 180
5 59 234
5 60 18
5 61 161
5 62 71
5 63 195
5 64 119
5 65 107
5 66 126
5 67 107
5 68 233
5 69 49
5 70 125
5 71 212
5 72 177
5 73 44
5 74 78
5 75 1
5 76 149
5 77 128
5 78 206
5 79 48
5 80 204
6 7 80
6 8 179
6 9 113
6 10 156
6 11 53
6 12 126
6 13 74
6 14 239
6 15 66
6 16 147
6 17 22
6 18 183
6 19 206
6 20 69
6 21 196
6 22 146
6 23 174
6 24 223
6 25 20
6 26 70
6 27 219
6 28 74
6 29 207
6 30 133
6 31 149
6 32 158
6 33 149
6 34 156
6 35 46
6 36 162
6 37 199
6 38 3
6 39 15
6 40 239
6 41 43
6 42 226
6 43 1
6 44 9
6 45 21
6 46 6
6 47 193
6 48 82
6 49 42
6 50 176
6 51 115
6 52 169
6 53 136
6 54 158
6 55 172
6 56 32
6 57 70
6 58 126
6 59 171
6 60 26
6 61 173
6 62 31
6 63 220
6 64 215
6 65 102
6 66 158
6 67 92
6 68 92
6 69 20
6 70 154
6 71 203
6 72 67
6 73 96
6 74 222
6 75 119
6 76 42
6 77 116
6 78 141
6 79 40
6 80 106
7 8 55
7 9 186
7 10 185
7 11 227
7 12 98
7 13 188
7 14 49
7 15 192
7 16 188
7 17 199
7 18 2
7 19 193
7 20 194
7 21 49
7 22 129
7 23 172
7 24 135
7 25 177
7 26 165
7 27 12
7 28 70
7 29 98
7 30 181
7 31 145
7 32 144
7 33 137
7 34 109
7 35 229
7 36 89
7 37 146
7 38 25
7 39 236
7 40 230
7 41 183
7 42 126
7 43 173
7 44 155
7 45 93
7 46 194
7 47 211
7 48 141
7 49 236
7 50 130
7 51 184
7 52 12
7 53 43
7 54 202
7 55 172
7 56 26
7 57 156
7 58 190
7 59 140
7 60 94
7 61 160
7 62 216
7 63 170
7 64 116
7 65 203
7 66 219
7 67 179
7 68 189
7 69 180
7 70 6
7 71 36
7 72 18
7 73 167
7 74 192
7 75 40
7 76 205
7 77 88
7 78 209
7 79 136
7 80 62
8 9 108
8 10 238
8 11 132
8 12 91
8 13 52
8 14 29
8 15 188
8 16 230
8 17 122
8 18 110
8 19 142
8 20 17
8 21 208
8 22 37
8 23 26
8 24 37
8 25 220
8 26 2
8 27 228
8 28 78
8 29 21
8 30 92
8 31 196
8 32 8
8 33 111
8 34 29
8 35 188
8 36 22
8 37 105
8 38 18
8 39 142
8 40 10
8 41 216
8 42 203
8 43 187
8 44 168
8 45 228
8 46 95
8 47 239
8 48 58
8 49 42
8 50 84
8 51 115
8 52 108
8 53 215
8 54 40
8 55 82
8 56 146
8 57 134
8 58 126
8 59 31
8 60 190
8 61 145
8 62 99
8 63 232
8 64 59
8 65 154
8 66 4
8 67 71
8 68 149
8 69 177
8 70 1
8 71 194
8 72 230
8 73 218
8 74 43
8 75 199
8 76 14
8 77 21
8 78 107
8 79 132
8 80 82
9 10 184
9 11 46
9 12 144
9 13 180
9 14 44
9 15 186
9 16 213
9 17 238
9 18 193
9 19 199
9 20 223
9 21 99
9 22 117
9 23 44
9 24 61
9 25 127
9 26 77
9 27 8
9 28 156
9 29 218
9 30 6
9 31 107
9 32 16
9 33 147
9 34 154
9 35 153
9 36 20
9 37 170
9 38 19
9 39 133
9 40 21
9 41 140
9 42 197
9 43 234
9 44 23
9 45 122
9 46 79
9 47 96
9 48 238
9 49 128
9 50 162
9 51 127
9 52 228
9 53 56
9 54 38
9 55 103
9 56 236
9 57 168
9 58 74
9 59 224
9 60 224
9 61 2
9 62 106
9 63 89
9 64 236
9 65 54
9 66 77
9 67 26
9 68 161
9 69 63
9 70 55
9 71 160
9 72 30
9 73 164
9 74 186
9 75 49
9 76 95
9 77 216
9 78 187
9 79 189
9 80 104
10 11 1
10 12 172
10 13 192
10 14 97
10 15 128
10 16 62
10 17 58
10 18 185
10 19 108
10 20 17
10 21 104
10 22 188
10 23 155
10 24 111
10 25 234
10 26 117
10 27 42
10 28 189
10 29 36
10 30 102
10 31 85
10 32 154
10 33 226
10 34 149
10 35 190
10 36 103
10 37 20
10 38 233
10 39 61
10 40 55
10 41 178
10 42 137
10 43 216
10 44 125
10 45 230
10 46 217
10 47 27
10 48 75
10 49 204
10 50 213
10 51 17
10 52 50
10 53 175
10 54 223
10 55 116
10 56 176
10 57 106
10 58 83
10 59 34
10 60 231
10 61 103
10 62 39
10 63 207
10 64 100
10 65 189
10 66 155
10 67 101
10 68 81
10 69 120
10 70 218
10 71 52
10 72 123
10 73 102
10 74 100
10 75 160
10 76 107
10 77 23
10 78 116
10 79 101
10 80 44
11 12 148
11 13 124
11 14 206
11 15 26
11 16 85
11 17 189
11 18 216
11 19 122
11 20 233
11 21 237
11 22 176
11 23 110
11 24 190
11 25 91
11 26 230
11 27 46
11 28 77
11 29 62
11 30 214
11 31 196
11 32 14
11 33 145
11 34 118
11 35 168
11 36 204
11 37 88
11 38 190
11 39 208
11 40 105
11 41 194
11 42 64
11 43 109
11 44 70
11 45 76
11 46 49
11 47 53
11 48 71
11 49 33
11 50 218
11 51 237
11 52 7
11 53 131
11 54 12
11 55 111
11 56 70
11 57 166
11 58 3
11 59 170
11 60 72
11 61 2
11 62 148
11 63 15
11 64 55
11 65 158
11 66 174
11 67 237
11 68 160
11 69 165
11 70 2
11 71 72
11 72 94
11 73 174
11 74 227
11 75 132
11 76 113
11 77 229
11 78 229
11 79 62
11 80 180
12 13 66
12 14 159
12 15 163
12 16 73
12 17 58
12 18 10
12 19 190
12 20 193
12 21 178
12 22 224
12 23 151
12 24 215
12 25 88
12 26 212
12 27 198
12 28 44
12 29 177
12 30 233
12 31 40
12 32 164
12 33 52
12 34 157
12 35 198
12 36 17
12 37 163
12 38 219
12 39 119
12 40 26
12 41 212
12 42 161
12 43 201
12 44 60
12 45 102
12 46 181
12 47 227
12 48 2
12 49 44
12 50 235
12 51 69
12 52 228
12 53 159
12 54 160
12 55 28
12 56 211
12 57 95
12 58 7
12 59 101
12 60 164
12 61 77
12 62 96
12 63 81
12 64 64
12 65 28
12 66 205
12 67 180
12 68 169
12 69 127
12 70 133
12 71 108
12 72 185
12 73 230
12 74 98
12 75 64
12 76 150
12 77 32
12 78 124
12 79 116
12 80 38
13 14 142
13 15 171
13 16 103
13 17 119
13 18 141
13 19 40
13 20 96
13 21 36
13 22 29
13 23 183
13 24 2
13 25 181
13 26 50
13 27 204
13 28 143
13 29 159
13 30 113
13 31 10
13 32 39
13 33 114
13 34 28
13 35 38
13 36 124
13 37 93
13 38 140
13 39 144
13 40 115
13 41 149
13 42 25
13 43 123
13 44 15
13 45 21
13 46 184
13 47 13
13 48 125
13 49 132
13 50 229
13 51 1
13 52 145
13 53 179
13 54 152
13 55 215
13 56 119
13 57 9
13 58 233
13 59 94
13 60 92
13 61 140
13 62 132
13 63 232
13 64 150
13 65 231
13 66 230
13 67 24
13 68 27
13 69 36
13 70 51
13 71 212
13 72 234
13 73 55
13 74 167
13 75 15
13 76 32
13 77 59
13 78 30
13 79 227
13 80 0
14 15 166
14 16 152
14 17 128
14 18 207
14 19 63
14 20 185
14 21 188
14 22 183
14 23 184
14 24 99
14 25 122
14 26 207
14 27 234
14 28 151
14 29 199
14 30 214
14 31 17
14 32 236
14 33 200
14 34 135
14 35 99
14 36 188
14 37 114
14 38 9
14 39 84
14 40 132
14 41 77
14 42 59
14 43 14
14 44 184
14 45 189
14 46 179
14 47 38
14 48 223
14 49 81
14 50 103
14 51 45
14 52 151
14 53 13
14 54 75
14 55 214
14 56 224
14 57 171
14 58 36
14 59 166
14 60 95
14 61 140
14 62 217
14 63 104
14 64 150
14 65 29
14 66 31
14 67 62
14 68 204
14 69 96
14 70 28
14 71 196
14 72 89
14 73 189
14 74 144
14 75 200
14 76 158
14 77 26
14 78 61
14 79 114
14 80 44
15 16 139
15 17 194
15 18 221
15 19 20
15 20 129
15 21 183
15 22 28
15 23 200
15 24 207
15 25 157
15 26 152
15 27 136
15 28 60
15 29 80
15 30 65
15 31 24
15 32 99
15 33 170
15 34 163
15 35 150
15 36 41
15 37 127
15 38 174
15 39 154
15 40 170
15 41 71
15 42 200
15 43 234
15 44 61
15 45 154
15 46 155
15 47 17
15 48 9
15 49 237
15 50 65
15 51 231
15 52 34
15 53 37
15 54 65
15 55 201
15 56 206
15 57 177
15 58 22
15 59 97
15 60 126
15 61 156
15 62 222
15 63 5
15 64 108
15 65 151
15 66 237
15 67 204
15 68 171
15 69 2
15 70 154
15 71 114
15 72 95
15 73 31
15 74 43
15 75 220
15 76 94
15 77 218
15 78 161
15 79 231
15 80 198
16 17 140
16 18 104
16 19 223
16 20 228
16 21 220
16 22 189
16 23 95
16 24 191
16 25 105
16 26 107
16 27 228
16 28 9
16 29 129
16 30 13
16 31 94
16 32 147
16 33 109
16 34 177
16 35 153
16 36 45
16 37 219
16 38 185
16 39 196
16 40 163
16 41 15
16 42 83
16 43 135
16 44 38
16 45 223
16 46 83
16 47 69
16 48 39
16 49 142
16 50 207
16 51 233
16 52 211
16 53 94
16 54 128
16 55 95
16 56 143
16 57 182
16 58 156
16 59 72
16 60 70
16 61 50
16 62 218
16 63 155
16 64 162
16 65 26
16 66 44
16 67 217
16 68 95
16 69 230
16 70 42
16 71 149
16 72 132
16 73 31
16 74 26
16 75 228
16 76 25
16 77 120
16 78 213
16 79 92
16 80 225
17 18 3
17 19 188
17 20 237
17 21 82
17 22 85
17 23 17
17 24 16
17 25 198
17 26 179
17 27 143
17 28 77
17 29 168
17 30 103
17 31 21
17 32 184
17 33 128
17 34 39
17 35 43
17 36 209
17 37 17
17 38 17
17 39 76
17 40 80
17 41 50
17 42 207
17 43 80
17 44 154
17 45 101
17 46 121
17 47 180
17 48 41
17 49 229
17 50 152
17 51 239
17 52 198
17 53 236
17 54 17
17 55 19
17 56 86
17 57 11
17 58 89
17 59 111
17 60 89
17 61 75
17 62 203
17 63 117
17 64 167
17 65 51
17 66 58
17 67 188
17 68 136
17 69 201
17 70 136
17 71 118
17 72 216
17 73 137
17 74 204
17 75 72
17 76 151
17 77 197
17 78 178
17 79 238
17 80 216
18 19 212
18 20 219
18 21 43
18 22 15
18 23 102
18 24 88
18 25 40
18 26 100
18 27 207
18 28 46
18 29 39
18 30 7
18 31 146
18 32 215
18 33 73
18 34 44
18 35 239
18 36 146
18 37 181
18 38 117
18 39 125
18 40 57
18 41 213
18 42 33
18 43 229
18 44 57
18 45 153
18 46 123
18 47 33
18 48 43
18 49 81
18 50 177
18 51 138
18 52 28
18 53 47
18 54 12
18 55 24
18 56 197
18 57 215
18 58 227
18 59 238
18 60 163
18 61 196
18 62 212
18 63 216
18 64 118
18 65 229
18 66 163
18 67 10
18 68 111
18 69 79
18 70 99
18 71 165
18 72 173
18 73 173
18 74 221
18 75 91
18 76 150
18 77 222
18 78 205
18 79 71
18 80 160
19 20 157
19 21 212
19 22 110
19 23 169
19 24 21
19 25 120
19 26 172
19 27 10
19 28 35
19 29 210
19 30 51
19 31 43
19 32 103
19 33 134
19 34 66
19 35 1
19 36 169
19 37 187
19 38 224
19 39 45
19 40 206
19 41 182
19 42 80
19 43 214
19 44 110
19 45 41
19 46 185
19 47 107
19 48 214
19 49 149
19 50 160
19 51 205
19 52 108
19 53 167
19 54 59
19 55 32
19 56 44
19 57 97
19 58 193
19 59 20
19 60 38
19 61 146
19 62 8
19 63 116
19 64 180
19 65 198
19 66 146
19 67 13
19 68 154
19 69 110
19 70 205
19 71 232
19 72 107
19 73 53
19 74 132
19 75 225
19 76 160
19 77 216
19 78 141
19 79 128
19 80 135
20 21 87
20 22 163
20 23 27
20 24 218
20 25 239
20 26 238
20 27 52
20 28 10
20 29 148
20 30 60
20 31 20
20 32 86
20 33 52
20 34 231
20 35 227
20 36 79
20 37 110
20 38 14
20 39 103
20 40 223
20 41 188
20 42 57
20 43 20
20 44 160
20 45 67
20 46 114
20 47 140
20 48 71
20 49 144
20 50 225
20 51 124
20 52 27
20 53 163
20 54 156
20 55 67
20 56 232
20 57 4
20 58 87
20 59 167
20 60 105
20 61 23
20 62 193
20 63 86
20 64 112
20 65 107
20 66 139
20 67 128
20 68 208
20 69 151
20 70 19
20 71 17
20 72 84
20 73 133
20 74 85
20 75 234
20 76 163
20 77 34
20 78 87
20 79 180
20 80 28
21 22 122
21 23 195
21 24 78
21 25 53
21 26 204
21 27 191
21 28 128
21 29 132
21 30 72
21 31 68
21 32 211
21 33 57
21 34 150
21 35 94
21 36 165
21 37 210
21 38 103
21 39 129
21 40 186
21 41 88
21 42 75
21 43 75
21 44 11
21 45 211
21 46 160
21 47 68
21 48 199
21 49 100
21 50 71
21 51 65
21 52 171
21 53 27
21 54 40
21 55 236
21 56 3
21 57 18
21 58 6
21 59 107
21 60 184
21 61 82
21 62 12
21 63 14
21 64 61
21 65 38
21 66 72
21 67 16
21 68 103
21 69 46
21 70 96
21 71 219
21 72 136
21 73 226
21 74 237
21 75 45
21 76 222
21 77 9
21 78 20
21 79 186
21 80 143
22 23 102
22 24 222
22 25 151
22 26 223
22 27 215
22 28 197
22 29 222
22 30 133
22 31 121
22 32 14
22 33 21
22 34 47
22 35 228
22 36 179
22 37 97
22 38 98
22 39 149
22 40 203
22 41 85
22 42 82
22 43 150
22 44 78
22 45 85
22 46 87
22 47 107
22 48 204
22 49 192
22 50 210
22 51 79
22 52 52
22 53 37
22 54 45
22 55 57
22 56 172
22 57 141
22 58 47
22 59 214
22 60 231
22 61 159
22 62 21
22 63 235
22 64 109
22 65 114
22 66 162
22 67 89
22 68 33
22 69 167
22 70 148
22 71 50
22 72 66
22 73 14
22 74 21
22 75 146
22 76 196
22 77 34
22 78 158
22 79 111
22 80 42
23 24 196
23 25 131
23 26 114
23 27 142
23 28 149
23 29 104
23 30 16
23 31 229
23 32 113
23 33 220
23 34 36
23 35 79
23 36 180
23 37 209
23 38 168
23 39 136
23 40 81
23 41 27
23 42 20
23 43 119
23 44 27
23 45 143
23 46 106
23 47 126
23 48 231
23 49 216
23 50 146
23 51 129
23 52 43
23 53 155
23 54 202
23 55 79
23 56 225
23 57 188
23 58 83
23 59 12
23 60 55
23 61 17
23 62 92
23 63 171
23 64 15
23 65 36
23 66 85
23 67 127
23 68 71
23 69 127
23 70 101
23 71 64
23 72 185
23 73 199
23 74 174
23 75 13
23 76 65
23 77 14
23 78 60
23 79 77
23 80 19
24 25 40
24 26 159
24 27 198
24 28 226
24 29 91
24 30 177
24 31 17
24 32 239
24 33 147
24 34 52
24 35 227
24 36 61
24 37 127
24 38 137
24 39 22
24 40 45
24 41 51
24 42 143
24 43 145
24 44 195
24 45 136
24 46 102
24 47 157
24 48 149
24 49 104
24 50 53
24 51 27
24 52 145
24 53 99
24 54 21
24 55 9
24 56 184
24 57 31
24 58 110
24 59 113
24 60 41
24 61 111
24 62 195
24 63 76
24 64 120
24 65 97
24 66 115
24 67 105
24 68 138
24 69 81
24 70 85
24 71 197
24 72 24
24 73 224
24 74 181
24 75 57
24 76 38
24 77 80
24 78 88
24 79 3
24 80 205
25 26 10
25 27 161
25 28 169
25 29 176
25 30 19
25 31 207
25 32 79
25 33 177
25 34 226
25 35 213
25 36 8
25 37 209
25 38 48
25 39 76
25 40 41
25 41 212
25 42 219
25 43 177
25 44 159
25 45 177
25 46 116
25 47 188
25 48 93
25 49 13
25 50 231
25 51 77
25 52 62
25 53 95
25 54 158
25 55 76
25 56 88
25 57 89
25 58 179
25 59 46
25 60 215
25 61 141
25 62 181
25 63 202
25 64 7
25 65 106
25 66 139
25 67 70
25 68 27
25 69 62
25 70 36
25 71 22
25 72 30
25 73 228
25 74 146
25 75 168
25 76 28
25 77 138
25 78 203
25 79 203
25 80 36
26 27 148
26 28 110
26 29 16
26 30 213
26 31 62
26 32 185
26 33 189
26 34 100
26 35 71
26 36 133
26 37 181
26 38 207
26 39 126
26 40 235
26 41 182
26 42 2
26 43 81
26 44 147
26 45 90
26 46 119
26 47 118
26 48 63
26 49 37
26 50 171
26 51 0
26 52 129
26 53 67
26 54 131
26 55 160
26 56 31
26 57 215
26 58 25
26 59 144
26 60 111
26 61 59
26 62 99
26 63 38
26 64 113
26 65 42
26 66 211
26 67 155
26 68 206
26 69 185
26 70 218
26 71 190
26 72 139
26 73 87
26 74 66
26 75 103
26 76 216
26 77 83
26 78 215
26 79 109
26 80 88
27 28 216
27 29 0
27 30 152
27 31 134
27 32 7
27 33 115
27 34 216
27 35 33
27 36 158
27 37 36
27 38 149
27 39 164
27 40 23
27 41 156
27 42 57
27 43 87
27 44 38
27 45 37
27 46 17
27 47 166
27 48 202
27 49 84
27 50 218
27 51 89
27 52 84
27 53 132
27 54 175
27 55 159
27 56 60
27 57 37
27 58 88
27 59 83
27 60 189
27 61 95
27 62 172
27 63 81
27 64 57
27 65 162
27 66 232
27 67 30
27 68 230
27 69 155
27 70 31
27 71 30
27 72 167
27 73 227
27 74 217
27 75 196
27 76 27
27 77 76
27 78 73
27 79 220
27 80 191
28 29 78
28 30 184
28 31 75
28 32 144
28 33 123
28 34 7
28 35 161
28 36 82
28 37 181
28 38 146
28 39 145
28 40 124
28 41 42
28 42 72
28 43 6
28 44 50
28 45 97
28 46 212
28 47 128
28 48 159
28 49 204
28 50 98
28 51 138
28 52 76
28 53 83
28 54 183
28 55 156
28 56 166
28 57 60
28 58 134
28 59 23
28 60 239
28 61 230
28 62 47
28 63 115
28 64 40
28 65 121
28 66 68
28 67 230
28 68 119
28 69 37
28 70 39
28 71 204
28 72 237
28 73 192
28 74 8
28 75 162
28 76 54
28 77 48
28 78 3
28 79 68
28 80 47
29 30 42
29 31 200
29 32 29
29 33 112
29 34 45
29 35 19
29 36 82
29 37 13
29 38 101
29 39 54
29 40 193
29 41 69
29 42 166
29 43 72
29 44 94
29 45 238
29 46 191
29 47 84
29 48 193
29 49 122
29 50 182
29 51 212
29 52 144
29 53 83
29 54 197
29 55 41
29 56 201
29 57 128
29 58 147
29 59 111
29 60 224
29 61 11
29 62 59
29 63 135
29 64 113
29 65 141
29 66 145
29 67 147
29 68 164
29 69 163
29 70 208
29 71 78
29 72 105
29 73 142
29 74 0
29 75 138
29 76 230
29 77 142
29 78 22
29 79 68
29 80 27
30 31 68
30 32 121
30 33 143
30 34 103
30 35 172
30 36 73
30 37 136
30 38 61
30 39 25
30 40 15
30 41 218
30 42 164
30 43 166
30 44 156
30 45 127
30 46 104
30 47 212
30 48 36
30 49 121
30 50 215
30 51 117
30 52 110
30 53 238
30 54 232
30 55 41
30 56 12
30 57 20
30 58 141
30 59 164
30 60 22
30 61 102
30 62 145
30 63 18
30 64 64
30 65 61
30 66 13
30 67 227
30 68 7
30 69 18
30 70 131
30 71 161
30 72 53
30 73 53
30 74 85
30 75 22
30 76 7
30 77 149
30 78 189
30 79 48
30 80 165
31 32 151
31 33 150
31 34 14
31 35 168
31 36 125
31 37 139
31 38 133
31 39 125
31 40 105
31 41 42
31 42 53
31 43 159
31 44 80
31 45 102
31 46 20
31 47 180
31 48 34
31 49 7
31 50 56
31 51 6
31 52 24
31 53 150
31 54 55
31 55 95
31 56 63
31 57 237
31 58 168
31 59 235
31 60 132
31 61 129
31 62 166
31 63 57
31 64 150
31 65 29
31 66 165
31 67 162
31 68 70
31 69 201
31 70 200
31 71 64
31 72 230
31 73 109
31 74 122
31 75 166
31 76 15
31 77 35
31 78 228
31 79 230
31 80 141
32 33 48
32 34 102
32 35 96
32 36 77
32 37 45
32 38 137
32 39 146
32 40 43
32 41 230
32 42 235
32 43 149
32 44 153
32 45 110
32 46 208
32 47 16
32 48 233
32 49 100
32 50 232
32 51 175
32 52 137
32 53 148
32 54 0
32 55 102
32 56 224
32 57 239
32 58 29
32 59 5
32 60 179
32 61 175
32 62 15
32 63 237
32 64 45
32 65 219
32 66 211
32 67 14
32 68 34
32 69 175
32 70 161
32 71 104
32 72 121
32 73 82
32 74 2
32 75 213
32 76 211
32 77 98
32 78 174
32 79 31
32 80 112
33 34 177
33 35 36
33 36 29
33 37 237
33 38 236
33 39 110
33 40 37
33 41 227
33 42 117
33 43 103
33 44 168
33 45 180
33 46 167
33 47 174
33 48 149
33 49 196
33 50 124
33 51 141
33 52 35
33 53 185
33 54 218
33 55 179
33 56 44
33 57 126
33 58 25
33 59 15
33 60 192
33 61 86
33 62 138
33 63 61
33 64 225
33 65 197
33 66 113
33 67 53
33 68 128
33 69 165
33 70 233
33 71 101
33 72 59
33 73 179
33 74 222
33 75 181
33 76 37
33 77 14
33 78 154
33 79 42
33 80 182
34 35 57
34 36 8
34 37 219
34 38 148
34 39 131
34 40 10
34 41 196
34 42 127
34 43 130
34 44 226
34 45 30
34 46 217
34 47 133
34 48 206
34 49 179
34 50 45
34 51 83
34 52 227
34 53 231
34 54 38
34 55 217
34 56 43
34 57 140
34 58 226
34 59 145
34 60 46
34 61 15
34 62 70
34 63 231
34 64 74
34 65 152
34 66 195
34 67 23
34 68 92
34 69 238
34 70 233
34 71 62
34 72 203
34 73 93
34 74 83
34 75 163
34 76 32
34 77 192
34 78 36
34 79 138
34 80 114
35 36 25
35 37 190
35 38 119
35 39 147
35 40 151
35 41 10
35 42 228
35 43 210
35 44 26
35 45 119
35 46 105
35 47 12
35 48 154
35 49 67
35 50 11
35 51 48
35 52 29
35 53 48
35 54 56
35 55 141
35 56 138
35 57 65
35 58 34
35 59 85
35 60 84
35 61 116
35 62 96
35 63 75
35 64 28
35 65 126
35 66 7
35 67 84
35 68 123
35 69 201
35 70 136
35 71 133
35 72 89
35 73 193
35 74 238
35 75 96
35 76 70
35 77 53
35 78 53
35 79 62
35 80 239
36 37 31
36 38 233
36 39 56
36 40 161
36 41 48
36 42 61
36 43 78
36 44 111
36 45 93
36 46 70
36 47 65
36 48 219
36 49 210
36 50 206
36 51 98
36 52 128
36 53 7
36 54 145
36 55 145
36 56 109
36 57 112
36 58 71
36 59 1
36 60 61
36 61 200
36 62 50
36 63 112
36 64 30
36 65 168
36 66 39
36 67 54
36 68 106
36 69 235
36 70 179
36 71 83
36 72 180
36 73 161
36 74 0
36 75 162
36 76 57
36 77 53
36 78 39
36 79 236
36 80 164
37 38 108
37 39 64
37 40 175
37 41 64
37 42 185
37 43 202
37 44 12
37 45 6
37 46 103
37 47 12
37 48 97
37 49 7
37 50 234
37 51 93
37 52 159
37 53 183
37 54 113
37 55 218
37 56 238
37 57 158
37 58 1
37 59 75
37 60 176
37 61 56
37 62 201
37 63 39
37 64 29
37 65 90
37 66 16
37 67 138
37 68 207
37 69 34
37 70 101
37 71 62
37 72 76
37 73 36
37 74 139
37 75 2
37 76 51
37 77 81
37 78 71
37 79 66
37 80 227
38 39 151
38 40 56
38 41 30
38 42 51
38 43 207
38 44 195
38 45 110
38 46 166
38 47 218
38 48 76
38 49 18
38 50 200
38 51 203
38 52 146
38 53 82
38 54 211
38 55 20
38 56 174
38 57 195
38 58 29
38 59 97
38 60 207
38 61 79
38 62 124
38 63 72
38 64 78
38 65 120
38 66 64
38 67 18
38 68 233
38 69 131
38 70 79
38 71 30
38 72 105
38 73 33
38 74 35
38 75 197
38 76 176
38 77 148
38 78 52
38 79 51
38 80 2
39 40 81
39 41 46
39 42 56
39 43 5
39 44 86
39 45 159
39 46 224
39 47 173
39 48 14
39 49 39
39 50 121
39 51 46
39 52 165
39 53 177
39 54 153
39 55 171
39 56 165
39 57 115
39 58 152
39 59 19
39 60 43
39 61 193
39 62 64
39 63 110
39 64 22
39 65 133
39 66 160
39 67 187
39 68 85
39 69 213
39 70 190
39 71 94
39 72 81
39 73 64
39 74 72
39 75 115
39 76 149
39 77 214
39 78 128
39 79 234
39 80 53
40 41 143
40 42 161
40 43 150
40 44 63
40 45 123
40 46 84
40 47 196
40 48 53
40 49 65
40 50 200
40 51 29
40 52 206
40 53 18
40 54 225
40 55 130
40 56 122
40 57 36
40 58 151
40 59 215
40 60 60
40 61 144
40 62 238
40 63 172
40 64 136
40 65 78
40 66 200
40 67 222
40 68 82
40 69 0
40 70 166
40 71 204
40 72 192
40 73 62
40 74 66
40 75 121
40 76 56
40 77 230
40 78 4
40 79 31
40 80 143
41 42 158
41 43 47
41 44 237
41 45 64
41 46 5
41 47 198
41 48 1
41 49 6
41 50 79
41 51 1
41 52 55
41 53 142
41 54 121
41 55 109
41 56 90
41 57 126
41 58 178
41 59 188
41 60 66
41 61 155
41 62 154
41 63 234
41 64 104
41 65 94
41 66 133
41 67 195
41 68 5
41 69 127
41 70 59
41 71 84
41 72 39
41 73 197
41 74 176
41 75 70
41 76 164
41 77 197
41 78 212
41 79 24
41 80 151
42 43 199
42 44 98
42 45 96
42 46 214
42 47 125
42 48 90
42 49 226
42 50 112
42 51 129
42 52 195
42 53 102
42 54 206
42 55 198
42 56 214
42 57 9
42 58 190
42 59 181
42 60 159
42 61 85
42 62 68
42 63 130
42 64 90
42 65 158
42 66 134
42 67 192
42 68 146
42 69 115
42 70 197
42 71 89
42 72 140
42 73 70
42 74 175
42 75 26
42 76 173
42 77 220
42 78 20
42 79 170
42 80 24
43 44 120
43 45 146
43 46 148
43 47 84
43 48 139
43 49 223
43 50 82
43 51 58
43 52 179
43 53 33
43 54 24
43 55 144
43 56 56
43 57 134
43 58 15
43 59 231
43 60 24
43 61 75
43 62 140
43 63 23
43 64 104
43 65 112
43 66 144
43 67 75
43 68 74
43 69 35
43 70 120
43 71 178
43 72 172
43 73 58
43 74 25
43 75 5
43 76 129
43 77 148
43 78 0
43 79 138
43 80 17
44 45 52
44 46 82
44 47 236
44 48 65
44 49 133
44 50 127
44 51 213
44 52 111
44 53 178
44 54 126
44 55 214
44 56 30
44 57 107
44 58 96
44 59 236
44 60 82
44 61 104
44 62 141
44 63 139
44 64 135
44 65 20
44 66 149
44 67 192
44 68 16
44 69 104
44 70 91
44 71 115
44 72 83
44 73 25
44 74 28
44 75 132
44 76 69
44 77 42
44 78 100
44 79 156
44 80 141
45 46 193
45 47 90
45 48 100
45 49 135
45 50 101
45 51 136
45 52 40
45 53 54
45 54 18
45 55 112
45 56 22
45 57 67
45 58 83
45 59 148
45 60 9
45 61 209
45 62 173
45 63 210
45 64 45
45 65 108
45 66 10
45 67 197
45 68 239
45 69 15
45 70 5
45 71 142
45 72 55
45 73 43
45 74 176
45 75 173
45 76 81
45 77 109
45 78 94
45 79 131
45 80 99
46 47 216
46 48 16
46 49 204
46 50 110
46 51 164
46 52 235
46 53 21
46 54 94
46 55 126
46 56 35
46 57 208
46 58 130
46 59 184
46 60 179
46 61 210
46 62 176
46 63 72
46 64 9
46 65 62
46 66 148
46 67 64
46 68 43
46 69 221
46 70 181
46 71 209
46 72 165
46 73 102
46 74 197
46 75 5
46 76 61
46 77 41
46 78 4
46 79 176
46 80 218
47 48 193
47 49 92
47 50 77
47 51 93
47 52 16
47 53 166
47 54 15
47 55 151
47 56 45
47 57 13
47 58 212
47 59 100
47 60 66
47 61 65
47 62 54
47 63 56
47 64 191
47 65 153
47 66 168
47 67 158
47 68 119
47 69 41
47 70 102
47 71 127
47 72 210
47 73 40
47 74 44
47 75 210
47 76 94
47 77 3
47 78 5
47 79 3
47 80 115
48 49 93
48 50 86
48 51 25
48 52 33
48 53 166
48 54 48
48 55 146
48 56 216
48 57 223
48 58 91
48 59 212
48 60 80
48 61 109
48 62 53
48 63 122
48 64 78
48 65 145
48 66 24
48 67 176
48 68 55
48 69 223
48 70 40
48 71 78
48 72 122
48 73 2
48 74 66
48 75 107
48 76 196
48 77 88
48 78 172
48 79 25
48 80 89
49 50 41
49 51 8
49 52 205
49 53 113
49 54 216
49 55 150
49 56 93
49 57 210
49 58 148
49 59 213
49 60 113
49 61 24
49 62 99
49 63 147
49 64 131
49 65 113
49 66 78
49 67 158
49 68 58
49 69 59
49 70 4
49 71 70
49 72 198
49 73 148
49 74 73
49 75 67
49 76 12
49 77 203
49 78 104
49 79 207
49 80 149
50 51 211
50 52 128
50 53 34
50 54 95
50 55 45
50 56 120
50 57 13
50 58 131
50 59 64
50 60 203
50 61 149
50 62 224
50 63 189
50 64 173
50 65 124
50 66 39
50 67 88
50 68 79
50 69 150
50 70 209
50 71 80
50 72 22
50 73 80
50 74 21
50 75 68
50 76 165
50 77 239
50 78 115
50 79 128
50 80 188
51 52 174
51 53 119
51 54 134
51 55 32
51 56 70
51 57 15
51 58 91
51 59 139
51 60 202
51 61 72
51 62 64
51 63 69
51 64 98
51 65 46
51 66 101
51 67 70
51 68 151
51 69 131
51 70 207
51 71 225
51 72 90
51 73 77
51 74 118
51 75 81
51 76 19
51 77 188
51 78 69
51 79 5
51 80 178
52 53 140
52 54 208
52 55 121
52 56 182
52 57 117
52 58 200
52 59 190
52 60 54
52 61 71
52 62 175
52 63 206
52 64 218
52 65 91
52 66 116
52 67 170
52 68 220
52 69 235
52 70 219
52 71 158
52 72 144
52 73 160
52 74 189
52 75 3
52 76 181
52 77 16
52 78 27
52 79 94
52 80 168
53 54 164
53 55 21
53 56 5
53 57 169
53 58 116
53 59 46
53 60 163
53 61 75
53 62 234
53 63 92
53 64 133
53 65 176
53 66 102
53 67 91
53 68 208
53 69 112
53 70 109
53 71 132
53 72 54
53 73 141
53 74 53
53 75 111
53 76 172
53 77 136
53 78 165
53 79 126
53 80 129
54 55 65
54 56 9
54 57 174
54 58 102
54 59 1
54 60 65
54 61 212
54 62 152
54 63 109
54 64 11
54 65 212
54 66 27
54 67 208
54 68 210
54 69 146
54 70 102
54 71 31
54 72 51
54 73 197
54 74 24
54 75 124
54 76 188
54 77 218
54 78 15
54 79 144
54 80 207
55 56 70
55 57 12
55 58 99
55 59 28
55 60 89
55 61 75
55 62 113
55 63 50
55 64 201
55 65 188
55 66 26
55 67 5
55 68 152
55 69 214
55 70 138
55 71 56
55 72 217
55 73 33
55 74 189
55 75 145
55 76 48
55 77 119
55 78 41
55 79 236
55 80 107
56 57 6
56 58 134
56 59 238
56 60 202
56 61 187
56 62 14
56 63 171
56 64 106
56 65 204
56 66 184
56 67 148
56 68 79
56 69 91
56 70 188
56 71 195
56 72 81
56 73 150
56 74 137
56 75 56
56 76 191
56 77 85
56 78 97
56 79 92
56 80 77
57 58 196
57 59 35
57 60 203
57 61 34
57 62 155
57 63 131
57 64 10
57 65 112
57 66 92
57 67 62
57 68 17
57 69 145
57 70 11
57 71 115
57 72 71
57 73 237
57 74 75
57 75 109
57 76 96
57 77 128
57 78 40
57 79 193
57 80 72
58 59 115
58 60 90
58 61 55
58 62 138
58 63 127
58 64 65
58 65 157
58 66 138
58 67 119
58 68 166
58 69 234
58 70 55
58 71 56
58 72 234
58 73 143
58 74 58
58 75 75
58 76 140
58 77 40
58 78 237
58 79 192
58 80 71
59 60 8
59 61 25
59 62 76
59 63 59
59 64 235
59 65 228
59 66 2
59 67 85
59 68 189
59 69 100
59 70 124
59 71 49
59 72 10
59 73 187
59 74 135
59 75 51
59 76 78
59 77 110
59 78 222
59 79 80
59 80 236
60 61 76
60 62 84
60 63 87
60 64 171
60 65 80
60 66 232
60 67 82
60 68 236
60 69 86
60 70 42
60 71 17
60 72 210
60 73 213
60 74 142
60 75 14
60 76 237
60 77 86
60 78 140
60 79 236
60 80 237
61 62 83
61 63 90
61 64 83
61 65 136
61 66 208
61 67 28
61 68 53
61 69 208
61 70 210
61 71 197
61 72 185
61 73 218
61 74 201
61 75 108
61 76 171
61 77 81
61 78 222
61 79 101
61 80 17
62 63 238
62 64 183
62 65 94
62 66 164
62 67 217
62 68 131
62 69 113
62 70 12
62 71 115
62 72 155
62 73 51
62 74 118
62 75 77
62 76 80
62 77 38
62 78 39
62 79 167
62 80 76
63 64 119
63 65 43
63 66 192
63 67 48
63 68 175
63 69 120
63 70 188
63 71 77
63 72 71
63 73 88
63 74 189
63 75 85
63 76 2
63 77 126
63 78 87
63 79 166
63 80 15
64 65 174
64 66 152
64 67 158
64 68 189
64 69 6
64 70 25
64 71 22
64 72 221
64 73 55
64 74 212
64 75 55
64 76 139
64 77 65
64 78 89
64 79 79
64 80 121
65 66 185
65 67 100
65 68 217
65 69 203
65 70 98
65 71 200
65 72 139
65 73 64
65 74 186
65 75 42
65 76 57
65 77 27
65 78 118
65 79 122
65 80 91
66 67 165
66 68 22
66 69 166
66 70 93
66 71 15
66 72 163
66 73 0
66 74 66
66 75 239
66 76 79
66 77 53
66 78 192
66 79 129
66 80 58
67 68 223
67 69 182
67 70 166
67 71 144
67 72 216
67 73 233
67 74 188
67 75 99
67 76 86
67 77 94
67 78 129
67 79 177
67 80 192
68 69 134
68 70 213
68 71 144
68 72 30
68 73 16
68 74 19
68 75 162
68 76 224
68 77 184
68 78 185
68 79 100
68 80 124
69 70 101
69 71 16
69 72 195
69 73 13
69 74 74
69 75 170
69 76 108
69 77 177
69 78 86
69 79 143
69 80 45
70 71 21
70 72 58
70 73 88
70 74 122
70 75 4
70 76 224
70 77 98
70 78 233
70 79 161
70 80 216
71 72 117
71 73 184
71 74 90
71 75 46
71 76 172
71 77 85
71 78 25
71 79 37
71 80 153
72 73 1
72 74 108
72 75 231
72 76 38
72 77 158
72 78 129
72 79 15
72 80 81
73 74 200
73 75 183
73 76 35
73 77 117
73 78 211
73 79 169
73 80 239
74 75 158
74 76 155
74 77 166
74 78 228
74 79 43
74 80 212
75 76 83
75 77 45
75 78 128
75 79 236
75 80 61
76 77 83
76 78 39
76 79 77
76 80 122
77 78 71
77 79 226
77 80 215
78 79 34
78 80 189
79 80 84
